NAME: Average of 19.992 to 20.024 min.: FMP3061.D\data.ms
COMMENT: Allylboranat Säule Spot 1
FORMULA:  
MW:  
CAS:  
Num Peaks:  50
38.79 1297 ;
39.74 319 ;
40.89 3416 ;
41.84 637 ;
42.89 1732 ;
43.74 315 ;
44.74 229 ;
52.89 1072 ;
53.79 3041 ;
54.84 4331 ;
55.84 169 ;
56.84 1976 ;
57.74 236 ;
58.79 930 ;
66.84 1552 ;
67.74 615 ;
68.79 5947 ;
69.64 124 ;
69.84 484 ;
70.69 510 ;
70.94 97 ;
78.84 532 ;
79.79 191 ;
80.79 1549 ;
81.84 454 ;
82.79 2370 ;
83.84 2118 ;
84.79 990 ;
90.74 82 ;
94.69 472 ;
95.69 187 ;
96.79 2763 ;
97.79 7510 ;
98.79 562 ;
100.84 10000 ;
101.79 589 ;
109.69 322 ;
109.89 356 ;
110.69 386 ;
112.64 86 ;
123.64 82 ;
124.79 727 ;
125.79 2692 ;
126.79 472 ;
137.89 431 ;
138.84 2478 ;
139.79 349 ;
140.84 94 ;
154.74 90 ;
166.79 416 ;
